NAME : local_2
TYPE : ATSP
DIMENSION : 24
EDGE_WEIGHT_TYPE : EXPLICIT
EDGE_WEIGHT_FORMAT : FULL_MATRIX
EDGE_WEIGHT_SECTION
0 10000000 913 404 10000000 772 738 742 10000000 10000000 954 761 853 10000000 171 946 10000000 10000000 10000000 10000000 10000000 10000000 10000000 10000000 
0 0 10000000 10000000 10000000 790 10000000 10000000 743 10000000 897 10000000 10000000 10000000 10000000 10000000 10000000 10000000 543 10000000 10000000 801 10000000 10000000 
0 10000000 0 607 10000000 638 10000000 361 10000000 10000000 197 883 10000000 10000000 771 10000000 10000000 10000000 631 10000000 10000000 348 696 10000000 
0 10000000 607 0 10000000 731 739 351 10000000 10000000 709 886 745 10000000 354 877 10000000 10000000 901 10000000 10000000 807 10000000 10000000 
0 10000000 10000000 10000000 0 1052 10000000 10000000 10000000 578 10000000 10000000 10000000 338 10000000 10000000 257 947 10000000 10000000 965 10000000 10000000 437 
0 790 638 731 1056 0 10000000 741 10000000 10000000 508 418 10000000 10000000 612 10000000 10000000 10000000 273 10000000 10000000 441 10000000 10000000 
0 10000000 10000000 739 10000000 10000000 0 954 10000000 10000000 10000000 10000000 235 10000000 826 287 10000000 857 10000000 967 10000000 10000000 10000000 10000000 
0 10000000 361 351 10000000 741 954 0 10000000 10000000 512 10000000 873 10000000 646 10000000 10000000 10000000 804 927 10000000 646 677 10000000 
0 743 10000000 10000000 10000000 10000000 10000000 10000000 0 10000000 992 10000000 10000000 941 10000000 10000000 10000000 10000000 918 826 703 10000000 590 10000000 
0 10000000 10000000 10000000 578 10000000 10000000 10000000 10000000 0 10000000 10000000 10000000 809 10000000 10000000 529 10000000 10000000 10000000 10000000 10000000 10000000 398 
0 897 197 709 10000000 508 10000000 512 992 10000000 0 768 10000000 10000000 794 10000000 10000000 10000000 462 10000000 10000000 151 766 10000000 
0 10000000 883 886 10000000 418 10000000 10000000 10000000 10000000 768 0 10000000 10000000 625 10000000 10000000 10000000 634 10000000 10000000 692 10000000 10000000 
0 10000000 10000000 745 10000000 10000000 235 873 10000000 10000000 10000000 10000000 0 10000000 903 165 10000000 683 10000000 734 10000000 10000000 10000000 10000000 
0 10000000 10000000 10000000 338 10000000 10000000 10000000 895 809 10000000 10000000 10000000 0 10000000 10000000 336 862 10000000 10000000 751 10000000 10000000 682 
0 10000000 771 354 10000000 612 826 646 10000000 10000000 794 625 903 10000000 0 996 10000000 10000000 858 10000000 10000000 835 10000000 10000000 
0 10000000 10000000 877 10000000 10000000 287 10000000 10000000 10000000 10000000 10000000 165 10000000 996 0 910 571 10000000 776 940 10000000 10000000 10000000 
0 10000000 10000000 10000000 257 10000000 10000000 10000000 10000000 529 10000000 10000000 10000000 336 10000000 910 0 744 10000000 10000000 825 10000000 10000000 555 
0 10000000 10000000 10000000 947 10000000 857 10000000 10000000 10000000 10000000 10000000 683 862 10000000 571 744 0 10000000 673 453 10000000 10000000 10000000 
0 543 631 901 10000000 273 10000000 804 909 10000000 462 634 10000000 10000000 858 10000000 10000000 10000000 0 10000000 10000000 359 1003 10000000 
0 10000000 10000000 10000000 10000000 10000000 967 927 826 10000000 10000000 10000000 734 10000000 10000000 776 10000000 673 10000000 0 669 10000000 757 10000000 
0 10000000 10000000 10000000 965 10000000 10000000 10000000 703 10000000 10000000 10000000 10000000 751 10000000 940 825 453 10000000 669 0 10000000 10000000 10000000 
0 801 348 807 10000000 441 10000000 646 10000000 10000000 151 692 10000000 10000000 835 10000000 10000000 10000000 359 10000000 10000000 0 861 10000000 
0 10000000 696 10000000 10000000 10000000 10000000 677 590 10000000 766 10000000 10000000 10000000 10000000 10000000 10000000 10000000 1004 757 10000000 861 0 10000000 
0 10000000 10000000 10000000 437 10000000 10000000 10000000 10000000 398 10000000 10000000 10000000 682 10000000 10000000 555 10000000 10000000 10000000 10000000 10000000 10000000 0 
EOF